
Gurobi 6.5.2 (linux64) logging started Sun Sep 18 18:40:56 2016


Gurobi 6.5.2 (linux64) logging started Sun Sep 18 18:40:56 2016

Optimize a model with 41 rows, 115 columns and 241 nonzeros
Coefficient statistics:
  Matrix range    [1e+00, 2e+00]
  Objective range [1e+00, 1e+02]
  Bounds range    [1e+00, 1e+00]
  RHS range       [1e+00, 1e+00]
Presolve removed 17 rows and 11 columns
Presolve time: 0.00s
Presolved: 24 rows, 104 columns, 208 nonzeros
Variable types: 0 continuous, 104 integer (104 binary)
Found heuristic solution: objective 556.0000000

Root relaxation: objective 5.025000e+02, 29 iterations, 0.00 seconds

    Nodes    |    Current Node    |     Objective Bounds      |     Work
 Expl Unexpl |  Obj  Depth IntInf | Incumbent    BestBd   Gap | It/Node Time

     0     0  502.50000    0    4  556.00000  502.50000  9.62%     -    0s
*    0     0               0     511.0000000  511.00000  0.00%     -    0s

Cutting planes:
  Gomory: 3
  Cover: 5
  Lazy constraints: 1

Explored 0 nodes (33 simplex iterations) in 0.00 seconds
Thread count was 8 (of 8 available processors)

Optimal solution found (tolerance 1.00e-04)
Best objective 5.110000000000e+02, best bound 5.110000000000e+02, gap 0.0%
